;symbolic execution tree
(push)
(assert (le x1 com.lowagie.text.pdf.PdfName))
(check-sat)
(push)
(assert (le x6 java.lang.StringBuffer))
(check-sat)
(push)
(assert (le x8 java.lang.String))
(check-sat)
(push)
(assert (le x2 java.lang.String))
(check-sat)
(pop)
(push)
(assert (not (le x2 java.lang.String)))
(check-sat)
(push)
(assert (le x1 java.lang.Object))
(check-sat)
(pop)
(push)
(assert (not (le x1 java.lang.Object)))
(check-sat)
(pop)
(pop)
(push)
(assert (le x6 java.lang.StringBuffer))
(check-sat)
(pop)
(push)
(assert (not (le x6 java.lang.StringBuffer)))
(check-sat)
(pop)
(push)
(assert (le x5 java.lang.StringBuffer))
(check-sat)
(pop)
(push)
(assert (not (le x5 java.lang.StringBuffer)))
(check-sat)
(pop)
(pop)
(push)
(assert (not (le x8 java.lang.String)))
(check-sat)
(push)
(assert (le x6 java.lang.StringBuffer))
(check-sat)
(pop)
(push)
(assert (not (le x6 java.lang.StringBuffer)))
(check-sat)
(pop)
(pop)
(pop)
(push)
(assert (not (le x6 java.lang.StringBuffer)))
(check-sat)
(push)
(assert (le x14 com.lowagie.text.pdf.PdfObject))
(check-sat)
(pop)
(push)
(assert (not (le x14 com.lowagie.text.pdf.PdfObject)))
(check-sat)
(pop)
(push)
(assert (le x2 com.lowagie.text.pdf.ByteBuffer))
(check-sat)
(pop)
(push)
(assert (not (le x2 com.lowagie.text.pdf.ByteBuffer)))
(check-sat)
(pop)
(push)
(assert (le x1 com.lowagie.text.pdf.PdfName))
(check-sat)
(push)
(assert (le x15 com.lowagie.text.pdf.ByteBuffer))
(check-sat)
(pop)
(push)
(assert (not (le x15 com.lowagie.text.pdf.ByteBuffer)))
(check-sat)
(pop)
(pop)
(push)
(assert (not (le x1 com.lowagie.text.pdf.PdfName)))
(check-sat)
(pop)
(pop)
(push)
(assert (le x3 com.lowagie.text.pdf.PdfName))
(check-sat)
(push)
(assert (le x2 java.lang.StringBuffer))
(check-sat)
(push)
(assert (le x7 com.lowagie.text.pdf.PdfObject))
(check-sat)
(pop)
(push)
(assert (not (le x7 com.lowagie.text.pdf.PdfObject)))
(check-sat)
(pop)
(push)
(assert (le x2 java.lang.StringBuffer))
(check-sat)
(pop)
(push)
(assert (not (le x2 java.lang.StringBuffer)))
(check-sat)
(pop)
(pop)
(push)
(assert (not (le x2 java.lang.StringBuffer)))
(check-sat)
(pop)
(pop)
(push)
(assert (not (le x3 com.lowagie.text.pdf.PdfName)))
(check-sat)
(pop)
(push)
(assert (le x12 com.lowagie.text.pdf.ByteBuffer))
(check-sat)
(pop)
(push)
(assert (not (le x12 com.lowagie.text.pdf.ByteBuffer)))
(check-sat)
(push)
(assert (le x7 com.lowagie.text.pdf.ByteBuffer))
(check-sat)
(pop)
(push)
(assert (not (le x7 com.lowagie.text.pdf.ByteBuffer)))
(check-sat)
(pop)
(push)
(assert (le x11 java.lang.StringBuffer))
(check-sat)
(pop)
(push)
(assert (not (le x11 java.lang.StringBuffer)))
(check-sat)
(push)
(assert (le x13 java.lang.String))
(check-sat)
(push)
(assert (le x14 java.lang.String))
(check-sat)
(pop)
(push)
(assert (not (le x14 java.lang.String)))
(check-sat)
(pop)
(pop)
(push)
(assert (not (le x13 java.lang.String)))
(check-sat)
(pop)
(pop)
(pop)
(pop)
(push)
(assert (not (le x1 com.lowagie.text.pdf.PdfName)))
(check-sat)
(push)
(assert (le x6 java.lang.StringBuffer))
(check-sat)
(pop)
(push)
(assert (not (le x6 java.lang.StringBuffer)))
(check-sat)
(push)
(assert (le x2 com.lowagie.text.pdf.PdfObject))
(check-sat)
(pop)
(push)
(assert (not (le x2 com.lowagie.text.pdf.PdfObject)))
(check-sat)
(push)
(assert (le x9 com.lowagie.text.pdf.PdfDictionary))
(check-sat)
(pop)
(push)
(assert (not (le x9 com.lowagie.text.pdf.PdfDictionary)))
(check-sat)
(pop)
(push)
(assert (le x8 java.lang.String))
(check-sat)
(push)
(assert (le x10 com.lowagie.text.pdf.ByteBuffer))
(check-sat)
(pop)
(push)
(assert (not (le x10 com.lowagie.text.pdf.ByteBuffer)))
(check-sat)
(pop)
(pop)
(push)
(assert (not (le x8 java.lang.String)))
(check-sat)
(pop)
(pop)
(push)
(assert (le x9 java.lang.StringBuffer))
(check-sat)
(push)
(assert (le x11 java.lang.String))
(check-sat)
(pop)
(push)
(assert (not (le x11 java.lang.String)))
(check-sat)
(push)
(assert (not (le x8 com.lowagie.text.pdf.PdfObject)))
(check-sat)
(pop)
(push)
(assert (le x8 com.lowagie.text.pdf.PdfObject))
(check-sat)
(pop)
(pop)
(pop)
(push)
(assert (not (le x9 java.lang.StringBuffer)))
(check-sat)
(push)
(assert (le x7 java.lang.String))
(check-sat)
(pop)
(push)
(assert (not (le x7 java.lang.String)))
(check-sat)
(pop)
(push)
(assert (le x5 java.lang.String))
(check-sat)
(pop)
(push)
(assert (not (le x5 java.lang.String)))
(check-sat)
(pop)
(push)
(assert (le x9 java.lang.StringBuffer))
(check-sat)
(pop)
(push)
(assert (not (le x9 java.lang.StringBuffer)))
(check-sat)
(pop)
(pop)
(push)
(assert (le x13 com.lowagie.text.pdf.PdfName))
(check-sat)
(pop)
(push)
(assert (not (le x13 com.lowagie.text.pdf.PdfName)))
(check-sat)
(push)
(assert (le x4 com.lowagie.text.pdf.PdfObject))
(check-sat)
(pop)
(push)
(assert (not (le x4 com.lowagie.text.pdf.PdfObject)))
(check-sat)
(push)
(assert (le x13 java.lang.Character))
(check-sat)
(pop)
(push)
(assert (le x13 java.awt.Font))
(check-sat)
(pop)
(push)
(assert (le x13 com.lowagie.text.pdf.ByteBuffer))
(check-sat)
(pop)
(push)
(assert (le x13 java.lang.Integer))
(check-sat)
(pop)
(push)
(assert (le x13 java.util.Date))
(check-sat)
(pop)
(push)
(assert (le x13 org.pdfsam.console.business.dto.commands.SetViewerParsedCommand))
(check-sat)
(pop)
(push)
(assert (le x13 java.util.regex.Matcher))
(check-sat)
(pop)
(push)
(assert (le x13 java.lang.Class))
(check-sat)
(pop)
(push)
(assert (le x13 com.lowagie.text.pdf.PdfNull))
(check-sat)
(pop)
(push)
(assert (le x13 java.security.cert.CertPath))
(check-sat)
(pop)
(push)
(assert (le x13 com.lowagie.text.pdf.PdfIndirectReference))
(check-sat)
(pop)
(push)
(assert (le x13 java.util.regex.Pattern))
(check-sat)
(pop)
(push)
(assert (le x13 java.nio.ByteBuffer))
(check-sat)
(pop)
(push)
(assert (not (le x13 java.lang.StringBuilder)))
(check-sat)
(push)
(assert (not (le x13 java.lang.StringBuffer)))
(check-sat)
(pop)
(pop)
(push)
(assert (le x13 org.pdfsam.console.business.dto.Transition))
(check-sat)
(pop)
(push)
(assert (le x13 java.security.cert.X509CRLEntry))
(check-sat)
(pop)
(push)
(assert (le x13 java.lang.Double))
(check-sat)
(pop)
(push)
(assert (le x13 java.awt.image.ColorModel))
(check-sat)
(pop)
(push)
(assert (le x13 org.jaxen.expr.DefaultPredicate))
(check-sat)
(pop)
(push)
(assert (le x13 org.jaxen.expr.DefaultXPathExpr))
(check-sat)
(pop)
(push)
(assert (le x13 org.apache.log4j.Priority))
(check-sat)
(pop)
(push)
(assert (le x13 java.awt.RenderingHints))
(check-sat)
(pop)
(push)
(assert (le x13 java.lang.StringBuilder))
(check-sat)
(pop)
(push)
(assert (le x13 java.awt.Dimension))
(check-sat)
(pop)
(push)
(assert (le x13 java.util.Vector))
(check-sat)
(pop)
(push)
(assert (le x13 org.bouncycastle.math.ec.SimpleBigDecimal))
(check-sat)
(pop)
(push)
(assert (le x13 java.lang.Package))
(check-sat)
(pop)
(push)
(assert (le x13 java.lang.Boolean))
(check-sat)
(pop)
(push)
(assert (le x13 java.security.cert.Certificate))
(check-sat)
(pop)
(push)
(assert (le x13 org.pdfsam.console.business.dto.commands.SlideShowParsedCommand))
(check-sat)
(pop)
(push)
(assert (le x13 java.net.URI))
(check-sat)
(pop)
(push)
(assert (le x13 org.jaxen.expr.DefaultNameStep))
(check-sat)
(pop)
(push)
(assert (le x13 java.security.Provider))
(check-sat)
(pop)
(push)
(assert (le x13 org.pdfsam.console.business.dto.PdfFile))
(check-sat)
(pop)
(push)
(assert (le x13 org.dom4j.xpath.DefaultXPath))
(check-sat)
(pop)
(push)
(assert (le x13 java.util.Hashtable))
(check-sat)
(pop)
(push)
(assert (le x13 java.math.BigInteger))
(check-sat)
(pop)
(push)
(assert (le x13 jcmdline.dto.PdfFile))
(check-sat)
(pop)
(push)
(assert (not (le x13 org.jaxen.expr.DefaultTruthExpr)))
(check-sat)
(push)
(assert (le x13 org.jaxen.expr.DefaultBinaryExpr))
(check-sat)
(pop)
(pop)
(push)
(assert (le x13 org.pdfsam.console.business.dto.commands.EncryptParsedCommand))
(check-sat)
(pop)
(push)
(assert (le x13 org.dom4j.tree.AbstractDocument))
(check-sat)
(pop)
(push)
(assert (le x13 org.dom4j.Namespace))
(check-sat)
(pop)
(push)
(assert (le x13 org.bouncycastle.jce.provider.PKIXNameConstraintValidator))
(check-sat)
(pop)
(push)
(assert (le x13 org.jaxen.expr.DefaultLiteralExpr))
(check-sat)
(pop)
(push)
(assert (le x13 com.lowagie.text.pdf.PdfDictionary))
(check-sat)
(push)
(assert (not (le x13 com.lowagie.text.pdf.PdfStream)))
(check-sat)
(pop)
(pop)
(push)
(assert (le x13 org.bouncycastle.math.ec.IntArray))
(check-sat)
(pop)
(push)
(assert (le x13 org.jaxen.expr.DefaultPathExpr))
(check-sat)
(pop)
(push)
(assert (le x13 org.apache.commons.lang.time.StopWatch))
(check-sat)
(pop)
(push)
(assert (le x13 org.bouncycastle.jce.provider.JCEECPrivateKey))
(check-sat)
(pop)
(push)
(assert (le x13 java.util.AbstractMap))
(check-sat)
(pop)
(push)
(assert (le x13 com.lowagie.text.Rectangle))
(check-sat)
(push)
(assert (not (le x13 com.lowagie.text.RectangleReadOnly)))
(check-sat)
(pop)
(pop)
(push)
(assert (le x13 org.jaxen.expr.DefaultEqualsExpr))
(check-sat)
(pop)
(push)
(assert (le x13 com.lowagie.text.pdf.PdfCopy_currencysign_RefKey))
(check-sat)
(pop)
(push)
(assert (le x13 org.dom4j.QName))
(check-sat)
(pop)
(push)
(assert (not (le x13 org.jaxen.expr.DefaultRelativeLocationPath)))
(check-sat)
(push)
(assert (le x13 org.jaxen.expr.DefaultLocationPath))
(check-sat)
(push)
(assert (not (le x13 org.jaxen.expr.DefaultAbsoluteLocationPath)))
(check-sat)
(pop)
(pop)
(pop)
(push)
(assert (le x13 java.awt.Color))
(check-sat)
(pop)
(push)
(assert (le x13 org.jaxen.expr.DefaultAbsoluteLocationPath))
(check-sat)
(pop)
(push)
(assert (le x13 java.lang.Thread))
(check-sat)
(pop)
(push)
(assert (le x13 org.dom4j.tree.NamespaceStack))
(check-sat)
(pop)
(push)
(assert (le x13 org.bouncycastle.jce.provider.JCERSAPublicKey))
(check-sat)
(pop)
(push)
(assert (le x13 org.pdfsam.console.business.dto.PageLabel))
(check-sat)
(pop)
(push)
(assert (not (le x13 org.jaxen.expr.DefaultEqualsExpr)))
(check-sat)
(pop)
(push)
(assert (not (le x13 org.pdfsam.console.business.dto.PageLabel)))
(check-sat)
(push)
(assert (not (le x13 org.bouncycastle.jce.provider.JCERSAPublicKey)))
(check-sat)
(push)
(assert (not (le x13 org.dom4j.tree.NamespaceStack)))
(check-sat)
(push)
(assert (not (le x13 java.lang.Thread)))
(check-sat)
(push)
(assert (not (le x13 java.util.regex.Pattern)))
(check-sat)
(push)
(assert (not (le x13 java.awt.Color)))
(check-sat)
(push)
(assert (not (le x13 java.security.cert.CertPath)))
(check-sat)
(push)
(assert (not (le x13 org.dom4j.QName)))
(check-sat)
(push)
(assert (not (le x13 java.lang.Class)))
(check-sat)
(push)
(assert (not (le x13 java.util.regex.Matcher)))
(check-sat)
(push)
(assert (not (le x13 java.util.Date)))
(check-sat)
(push)
(assert (not (le x13 com.lowagie.text.pdf.PdfCopy_currencysign_RefKey)))
(check-sat)
(push)
(assert (not (le x13 java.awt.Font)))
(check-sat)
(push)
(assert (not (le x13 java.lang.Character)))
(check-sat)
(push)
(assert (le x13 java.lang.Object))
(check-sat)
(push)
(assert (not (le x13 org.bouncycastle.jce.provider.JDKGOST3410PublicKey)))
(check-sat)
(push)
(assert (not (le x13 java.lang.String)))
(check-sat)
(push)
(assert (not (le x13 java.awt.RenderingHints)))
(check-sat)
(push)
(assert (not (le x13 org.jaxen.expr.DefaultStep)))
(check-sat)
(push)
(assert (not (le x13 java.text.AttributedCharacterIterator_currencysign_Attribute)))
(check-sat)
(push)
(assert (not (le x13 com.lowagie.text.pdf.PdfObject)))
(check-sat)
(push)
(assert (not (le x13 org.apache.log4j.Priority)))
(check-sat)
(push)
(assert (not (le x13 org.jaxen.expr.DefaultXPathExpr)))
(check-sat)
(push)
(assert (not (le x13 org.bouncycastle.jce.provider.JCEECPublicKey)))
(check-sat)
(push)
(assert (not (le x13 org.pdfsam.console.business.dto.PageRotation)))
(check-sat)
(push)
(assert (not (le x13 org.jaxen.expr.DefaultPredicate)))
(check-sat)
(push)
(assert (not (le x13 org.dom4j.tree.ConcurrentReaderHashMap_currencysign_Entry)))
(check-sat)
(push)
(assert (not (le x13 java.awt.image.ColorModel)))
(check-sat)
(push)
(assert (not (le x13 org.pdfsam.console.business.dto.WorkDoneDataModel)))
(check-sat)
(push)
(assert (not (le x13 org.jaxen.expr.DefaultLocationPath)))
(check-sat)
(push)
(assert (not (le x13 java.net.URL)))
(check-sat)
(push)
(assert (not (le x13 org.pdfsam.console.business.dto.Transition)))
(check-sat)
(push)
(assert (not (le x13 java.security.cert.X509CRLEntry)))
(check-sat)
(push)
(assert (not (le x13 org.jaxen.expr.DefaultBinaryExpr)))
(check-sat)
(push)
(assert (not (le x13 java.awt.geom.AffineTransform)))
(check-sat)
(push)
(assert (not (le x13 java.util.Calendar)))
(check-sat)
(push)
(assert (not (le x13 java.nio.channels.FileChannel_currencysign_MapMode)))
(check-sat)
(push)
(assert (not (le x13 java.io.File)))
(check-sat)
(push)
(assert (not (le x13 java.util.Locale)))
(check-sat)
(push)
(assert (not (le x13 java.net.URI)))
(check-sat)
(push)
(assert (not (le x13 org.pdfsam.console.business.dto.Bounds)))
(check-sat)
(push)
(assert (not (le x13 java.security.cert.Certificate)))
(check-sat)
(push)
(assert (not (le x13 java.lang.Boolean)))
(check-sat)
(push)
(assert (not (le x13 org.bouncycastle.jce.provider.JDKDSAPublicKey)))
(check-sat)
(push)
(assert (not (le x13 com.lowagie.text.Rectangle)))
(check-sat)
(push)
(assert (not (le x13 java.lang.Package)))
(check-sat)
(push)
(assert (not (le x13 org.bouncycastle.math.ec.SimpleBigDecimal)))
(check-sat)
(push)
(assert (not (le x13 java.lang.Throwable)))
(check-sat)
(push)
(assert (not (le x13 java.util.AbstractMap)))
(check-sat)
(push)
(assert (not (le x13 org.apache.commons.lang.time.StopWatch)))
(check-sat)
(push)
(assert (not (le x13 org.jaxen.expr.DefaultFilterExpr)))
(check-sat)
(push)
(assert (not (le x13 org.bouncycastle.jce.provider.JCEECPrivateKey)))
(check-sat)
(push)
(assert (not (le x13 java.security.Permission)))
(check-sat)
(push)
(assert (not (le x13 org.jaxen.expr.DefaultPathExpr)))
(check-sat)
(push)
(assert (not (le x13 javax.security.auth.x500.X500Principal)))
(check-sat)
(push)
(assert (not (le x13 org.bouncycastle.math.ec.IntArray)))
(check-sat)
(push)
(assert (not (le x13 org.jaxen.BaseXPath)))
(check-sat)
(push)
(assert (not (le x13 java.util.AbstractCollection)))
(check-sat)
(push)
(assert (not (le x13 org.jaxen.expr.DefaultLiteralExpr)))
(check-sat)
(push)
(assert (not (le x13 org.bouncycastle.jce.provider.PKIXNameConstraintValidator)))
(check-sat)
(push)
(assert (not (le x13 com.lowagie.text.pdf.PdfContentByte)))
(check-sat)
(push)
(assert (not (le x13 jcmdline.dto.PdfFile)))
(check-sat)
(push)
(assert (not (le x13 org.pdfsam.console.business.dto.commands.AbstractParsedCommand)))
(check-sat)
(push)
(assert (not (le x13 org.dom4j.xpath.DefaultXPath)))
(check-sat)
(push)
(assert (not (le x13 org.pdfsam.console.business.dto.PdfFile)))
(check-sat)
(pop)
(pop)
(pop)
(pop)
(pop)
(pop)
(pop)
(pop)
(pop)
(pop)
(pop)
(pop)
(pop)
(pop)
(pop)
(pop)
(pop)
(pop)
(pop)
(pop)
(pop)
(pop)
(pop)
(pop)
(pop)
(pop)
(pop)
(pop)
(pop)
(pop)
(pop)
(pop)
(pop)
(pop)
(pop)
(pop)
(pop)
(pop)
(pop)
(pop)
(pop)
(pop)
(pop)
(pop)
(pop)
(pop)
(pop)
(pop)
(pop)
(pop)
(pop)
(pop)
(pop)
(pop)
(pop)
(pop)
(pop)
(pop)
(pop)
(pop)
(pop)
(pop)
(pop)
(pop)
(pop)
(push)
(assert (le x13 org.jaxen.expr.DefaultStep))
(check-sat)
(push)
(assert (not (le x13 org.jaxen.expr.DefaultNameStep)))
(check-sat)
(pop)
(pop)
(push)
(assert (le x13 java.net.URL))
(check-sat)
(pop)
(push)
(assert (le x13 java.lang.reflect.Constructor))
(check-sat)
(pop)
(push)
(assert (le x13 com.lowagie.text.pdf.PdfBoolean))
(check-sat)
(pop)
(push)
(assert (le x13 org.pdfsam.console.business.dto.WorkDoneDataModel))
(check-sat)
(pop)
(push)
(assert (le x13 org.dom4j.tree.ConcurrentReaderHashMap_currencysign_Entry))
(check-sat)
(pop)
(push)
(assert (le x13 org.pdfsam.console.business.dto.commands.MixParsedCommand))
(check-sat)
(pop)
(push)
(assert (le x13 org.pdfsam.console.business.dto.PageRotation))
(check-sat)
(pop)
(push)
(assert (le x13 java.lang.reflect.Field))
(check-sat)
(pop)
(push)
(assert (le x13 com.lowagie.text.ExceptionConverter))
(check-sat)
(pop)
(push)
(assert (le x13 org.bouncycastle.jce.provider.JCEECPublicKey))
(check-sat)
(pop)
(push)
(assert (le x13 java.text.AttributedCharacterIterator_currencysign_Attribute))
(check-sat)
(pop)
(push)
(assert (le x13 org.xml.sax.SAXException))
(check-sat)
(pop)
(push)
(assert (le x13 java.lang.String))
(check-sat)
(pop)
(push)
(assert (le x13 java.util.SimpleTimeZone))
(check-sat)
(pop)
(push)
(assert (le x13 org.bouncycastle.jce.provider.JDKGOST3410PublicKey))
(check-sat)
(pop)
(push)
(assert (le x13 java.lang.StringBuffer))
(check-sat)
(pop)
(push)
(assert (le x13 org.bouncycastle.jce.provider.JDKDSAPublicKey))
(check-sat)
(pop)
(push)
(assert (le x13 org.pdfsam.console.business.dto.Bounds))
(check-sat)
(pop)
(push)
(assert (le x13 org.dom4j.tree.AbstractElement))
(check-sat)
(pop)
(push)
(assert (le x13 java.security.MessageDigest))
(check-sat)
(pop)
(push)
(assert (le x13 java.lang.reflect.Method))
(check-sat)
(pop)
(push)
(assert (not (le x13 com.lowagie.text.pdf.PdfNull)))
(check-sat)
(push)
(assert (not (le x13 com.lowagie.text.pdf.PdfArray)))
(check-sat)
(push)
(assert (not (le x13 com.lowagie.text.pdf.PdfBoolean)))
(check-sat)
(push)
(assert (not (le x13 com.lowagie.text.pdf.PdfString)))
(check-sat)
(push)
(assert (not (le x13 com.lowagie.text.pdf.PdfDictionary)))
(check-sat)
(push)
(assert (le x13 com.lowagie.text.pdf.PdfObject))
(check-sat)
(push)
(assert (not (le x13 com.lowagie.text.pdf.PdfIndirectReference)))
(check-sat)
(pop)
(pop)
(pop)
(pop)
(pop)
(pop)
(pop)
(push)
(assert (le x13 org.pdfsam.console.business.dto.commands.ConcatParsedCommand))
(check-sat)
(pop)
(push)
(assert (le x13 org.pdfsam.console.business.dto.commands.SplitParsedCommand))
(check-sat)
(pop)
(push)
(assert (le x13 java.util.Locale))
(check-sat)
(pop)
(push)
(assert (le x13 java.io.File))
(check-sat)
(pop)
(push)
(assert (le x13 java.lang.Long))
(check-sat)
(pop)
(push)
(assert (le x13 org.jaxen.expr.DefaultRelativeLocationPath))
(check-sat)
(pop)
(push)
(assert (not (le x13 org.pdfsam.console.business.dto.commands.ConcatParsedCommand)))
(check-sat)
(push)
(assert (le x13 org.pdfsam.console.business.dto.commands.AbstractParsedCommand))
(check-sat)
(push)
(assert (not (le x13 org.pdfsam.console.business.dto.commands.SetViewerParsedCommand)))
(check-sat)
(push)
(assert (not (le x13 org.pdfsam.console.business.dto.commands.EncryptParsedCommand)))
(check-sat)
(push)
(assert (not (le x13 org.pdfsam.console.business.dto.commands.MixParsedCommand)))
(check-sat)
(push)
(assert (not (le x13 org.pdfsam.console.business.dto.commands.SlideShowParsedCommand)))
(check-sat)
(push)
(assert (not (le x13 org.pdfsam.console.business.dto.commands.SplitParsedCommand)))
(check-sat)
(pop)
(pop)
(pop)
(pop)
(pop)
(pop)
(pop)
(push)
(assert (le x13 java.nio.channels.FileChannel_currencysign_MapMode))
(check-sat)
(pop)
(push)
(assert (le x13 java.util.Calendar))
(check-sat)
(pop)
(push)
(assert (le x13 com.lowagie.text.RectangleReadOnly))
(check-sat)
(pop)
(push)
(assert (le x13 java.awt.geom.AffineTransform))
(check-sat)
(pop)
(push)
(assert (le x13 java.lang.Float))
(check-sat)
(pop)
(push)
(assert (le x13 org.jaxen.expr.DefaultTruthExpr))
(check-sat)
(pop)
(push)
(assert (le x13 org.dom4j.tree.AbstractAttribute))
(check-sat)
(pop)
(push)
(assert (le x13 com.lowagie.text.pdf.PdfContentByte))
(check-sat)
(pop)
(push)
(assert (le x13 com.lowagie.text.pdf.PdfStream))
(check-sat)
(pop)
(push)
(assert (le x13 java.util.AbstractCollection))
(check-sat)
(pop)
(push)
(assert (le x13 com.lowagie.text.pdf.PdfString))
(check-sat)
(pop)
(push)
(assert (le x13 java.io.ByteArrayOutputStream))
(check-sat)
(pop)
(push)
(assert (le x13 org.jaxen.BaseXPath))
(check-sat)
(pop)
(push)
(assert (le x13 javax.security.auth.x500.X500Principal))
(check-sat)
(pop)
(push)
(assert (le x13 java.security.Permission))
(check-sat)
(pop)
(push)
(assert (le x13 org.jaxen.expr.DefaultFilterExpr))
(check-sat)
(pop)
(push)
(assert (le x13 java.lang.Throwable))
(check-sat)
(pop)
(push)
(assert (le x13 com.lowagie.text.pdf.PdfArray))
(check-sat)
(pop)
(pop)
(pop)
(pop)
(pop)
